n = 49;
k = 3;
roles = [
{m, f},
{f, g},
{f, g},
{f, d},
{d, f},
{d, m},
{m, f},
{f, d},
{m, d},
{g, f},
{f, d},
{f, g},
{m, f},
{f, g},
{f, m},
{m, d},
{d, m},
{f, g},
{m, d},
{g, m},
{f, d},
{g, m},
{m, d},
{g, f},
{d, g},
{g, d},
{g, f},
{g, d},
{f, d},
{m, g},
{f, g},
{m, d},
{g, f},
{f, m},
{f, m},
{f, m},
{f, d},
{g, d},
{f, g},
{m, f},
{g, m},
{m, f},
{f, d},
{d, f},
{g, f},
{d, f},
{m, f},
{m, d},
{d, f}
];
num_pairs = 5;
player1 = [45, 49, 43, 28, 5];
player2 = [16, 29, 13, 4, 32];
